; DUP3 CALLDATASIZE SWAP1 => CALLDATASIZE DUP4
(set-option :produce-proofs true)
; 
(set-info :status unknown)
(declare-fun storage_t ((_ BitVec 256) (_ BitVec 256) (_ BitVec 256) (_ BitVec 256) Int (_ BitVec 256)) (_ BitVec 256))
(declare-fun storage_s ((_ BitVec 256) (_ BitVec 256) (_ BitVec 256) (_ BitVec 256) Int (_ BitVec 256)) (_ BitVec 256))
(declare-fun exc_halt_t (Int) Bool)
(declare-fun exc_halt_s (Int) Bool)
(declare-fun sc_t (Int) (_ BitVec 6))
(declare-fun stack_t ((_ BitVec 256) (_ BitVec 256) (_ BitVec 256) (_ BitVec 256) Int (_ BitVec 6)) (_ BitVec 256))
(declare-fun stack_s ((_ BitVec 256) (_ BitVec 256) (_ BitVec 256) (_ BitVec 256) Int (_ BitVec 6)) (_ BitVec 256))
(declare-fun sc_s (Int) (_ BitVec 6))
(declare-fun used_gas_t ((_ BitVec 256) (_ BitVec 256) (_ BitVec 256) (_ BitVec 256) Int) Int)
(declare-fun used_gas_s ((_ BitVec 256) (_ BitVec 256) (_ BitVec 256) (_ BitVec 256) Int) Int)
(assert
 (exists ((x_0 (_ BitVec 256)) (x_1 (_ BitVec 256)) (x_2 (_ BitVec 256)) (x_CALLDATASIZE (_ BitVec 256)) )(let (($x6084 (forall ((w (_ BitVec 256)) )(let ((?x4142 (storage_t x_0 x_1 x_2 x_CALLDATASIZE 2 w)))
 (let ((?x135 (storage_s x_0 x_1 x_2 x_CALLDATASIZE 3 w)))
 (= ?x135 ?x4142))))
 ))
 (let (($x903 (exc_halt_t 2)))
 (let (($x292 (exc_halt_s 3)))
 (let (($x9807 (= $x292 $x903)))
 (let (($x1364 (forall ((n (_ BitVec 6)) )(let ((?x4056 (sc_t 2)))
 (let (($x4469 (bvsle ?x4056 n)))
 (let ((?x2565 (stack_t x_0 x_1 x_2 x_CALLDATASIZE 2 n)))
 (let ((?x3712 (stack_s x_0 x_1 x_2 x_CALLDATASIZE 3 n)))
 (let (($x264 (= ?x3712 ?x2565)))
 (or $x264 $x4469)))))))
 ))
 (let ((?x4056 (sc_t 2)))
 (let ((?x275 (sc_s 3)))
 (let (($x316 (= ?x275 ?x4056)))
 (let ((?x1979 (used_gas_t x_0 x_1 x_2 x_CALLDATASIZE 0)))
 (let ((?x5253 (used_gas_s x_0 x_1 x_2 x_CALLDATASIZE 0)))
 (let (($x10760 (= ?x5253 ?x1979)))
 (let (($x9967 (forall ((w (_ BitVec 256)) )(let ((?x4595 (storage_t x_0 x_1 x_2 x_CALLDATASIZE 0 w)))
 (let ((?x9968 (storage_s x_0 x_1 x_2 x_CALLDATASIZE 0 w)))
 (= ?x9968 ?x4595))))
 ))
 (let (($x56 (exc_halt_t 0)))
 (let (($x57 (exc_halt_s 0)))
 (let (($x58 (= $x57 $x56)))
 (let (($x9714 (forall ((n (_ BitVec 6)) )(let ((?x215 (stack_t x_0 x_1 x_2 x_CALLDATASIZE 0 n)))
 (let ((?x11205 (stack_s x_0 x_1 x_2 x_CALLDATASIZE 0 n)))
 (let (($x9951 (= ?x11205 ?x215)))
 (let ((?x63 (sc_t 0)))
 (let (($x8037 (bvsle ?x63 n)))
 (or $x8037 $x9951)))))))
 ))
 (let ((?x63 (sc_t 0)))
 (let ((?x72 (sc_s 0)))
 (let (($x73 (= ?x72 ?x63)))
 (let (($x7962 (not (= ((_ extract 6 6) (bvadd (_ bv1 7) (concat (_ bv0 1) (sc_t 1)))) (_ bv0 1)))))
 (let (($x1920 (exc_halt_t 1)))
 (let (($x9883 (forall ((w (_ BitVec 256)) )(let ((?x4653 (storage_t x_0 x_1 x_2 x_CALLDATASIZE 1 w)))
 (let ((?x4142 (storage_t x_0 x_1 x_2 x_CALLDATASIZE 2 w)))
 (= ?x4142 ?x4653))))
 ))
 (let (($x2864 (forall ((n (_ BitVec 6)) )(let ((?x6247 (stack_t x_0 x_1 x_2 x_CALLDATASIZE 1 n)))
 (let ((?x2565 (stack_t x_0 x_1 x_2 x_CALLDATASIZE 2 n)))
 (or (= ?x2565 ?x6247) (bvsle (bvadd (_ bv60 6) (sc_t 1)) n)))))
 ))
 (let (($x6865 (= ?x4056 (bvadd (_ bv1 6) (sc_t 1)))))
 (let (($x8881 (= (used_gas_t x_0 x_1 x_2 x_CALLDATASIZE 2) (+ 3 (used_gas_t x_0 x_1 x_2 x_CALLDATASIZE 1)))))
 (let (($x4338 (= (stack_t x_0 x_1 x_2 x_CALLDATASIZE 2 (bvadd (_ bv63 6) (sc_t 1))) (stack_t x_0 x_1 x_2 x_CALLDATASIZE 1 (bvadd (_ bv63 6) (sc_t 1))))))
 (let (($x10012 (= (stack_t x_0 x_1 x_2 x_CALLDATASIZE 2 (bvadd (_ bv62 6) (sc_t 1))) (stack_t x_0 x_1 x_2 x_CALLDATASIZE 1 (bvadd (_ bv62 6) (sc_t 1))))))
 (let (($x7690 (= (stack_t x_0 x_1 x_2 x_CALLDATASIZE 2 (bvadd (_ bv61 6) (sc_t 1))) (stack_t x_0 x_1 x_2 x_CALLDATASIZE 1 (bvadd (_ bv61 6) (sc_t 1))))))
 (let ((?x4023 (sc_t 1)))
 (let ((?x4787 (bvadd (_ bv60 6) ?x4023)))
 (let ((?x9993 (stack_t x_0 x_1 x_2 x_CALLDATASIZE 1 ?x4787)))
 (let (($x2108 (= $x1920 (or $x56 (not (= ((_ extract 6 6) (bvadd (_ bv1 7) (concat (_ bv0 1) ?x63))) (_ bv0 1)))))))
 (let (($x4057 (forall ((w (_ BitVec 256)) )(let ((?x4595 (storage_t x_0 x_1 x_2 x_CALLDATASIZE 0 w)))
 (let ((?x4653 (storage_t x_0 x_1 x_2 x_CALLDATASIZE 1 w)))
 (= ?x4653 ?x4595))))
 ))
 (let (($x3952 (forall ((n (_ BitVec 6)) )(let ((?x63 (sc_t 0)))
 (let (($x8037 (bvsle ?x63 n)))
 (let ((?x215 (stack_t x_0 x_1 x_2 x_CALLDATASIZE 0 n)))
 (let ((?x6247 (stack_t x_0 x_1 x_2 x_CALLDATASIZE 1 n)))
 (or (= ?x6247 ?x215) $x8037))))))
 ))
 (let (($x2532 (= ?x4023 (bvadd (_ bv1 6) ?x63))))
 (let (($x1024 (= $x292 (or (exc_halt_s 2) (not (bvsle (_ bv0 6) (bvadd (_ bv62 6) (sc_s 2))))))))
 (let (($x2570 (forall ((w (_ BitVec 256)) )(let ((?x5473 (storage_s x_0 x_1 x_2 x_CALLDATASIZE 2 w)))
 (let ((?x135 (storage_s x_0 x_1 x_2 x_CALLDATASIZE 3 w)))
 (= ?x135 ?x5473))))
 ))
 (let (($x4146 (forall ((n (_ BitVec 6)) )(let ((?x2457 (stack_s x_0 x_1 x_2 x_CALLDATASIZE 2 n)))
 (let ((?x3712 (stack_s x_0 x_1 x_2 x_CALLDATASIZE 3 n)))
 (or (= ?x3712 ?x2457) (bvsle (bvadd (_ bv62 6) (sc_s 2)) n)))))
 ))
 (let ((?x218 (sc_s 2)))
 (let (($x4319 (= ?x275 ?x218)))
 (let (($x4124 (= (used_gas_s x_0 x_1 x_2 x_CALLDATASIZE 3) (+ 3 (used_gas_s x_0 x_1 x_2 x_CALLDATASIZE 2)))))
 (let (($x4263 (= (stack_s x_0 x_1 x_2 x_CALLDATASIZE 3 (bvadd (_ bv62 6) ?x275)) (stack_s x_0 x_1 x_2 x_CALLDATASIZE 2 (bvadd (_ bv63 6) ?x218)))))
 (let (($x4274 (= (stack_s x_0 x_1 x_2 x_CALLDATASIZE 3 (bvadd (_ bv63 6) ?x275)) (stack_s x_0 x_1 x_2 x_CALLDATASIZE 2 (bvadd (_ bv62 6) ?x218)))))
 (let (($x1895 (not (= ((_ extract 6 6) (bvadd (_ bv1 7) (concat (_ bv0 1) (sc_s 1)))) (_ bv0 1)))))
 (let (($x189 (exc_halt_s 1)))
 (let (($x247 (exc_halt_s 2)))
 (let (($x5493 (= $x247 (or $x189 $x1895))))
 (let (($x4253 (forall ((w (_ BitVec 256)) )(let ((?x4313 (storage_s x_0 x_1 x_2 x_CALLDATASIZE 1 w)))
 (let ((?x5473 (storage_s x_0 x_1 x_2 x_CALLDATASIZE 2 w)))
 (= ?x5473 ?x4313))))
 ))
 (let (($x4251 (forall ((n (_ BitVec 6)) )(let ((?x154 (sc_s 1)))
 (let (($x2942 (bvsle ?x154 n)))
 (let ((?x4316 (stack_s x_0 x_1 x_2 x_CALLDATASIZE 1 n)))
 (let ((?x2457 (stack_s x_0 x_1 x_2 x_CALLDATASIZE 2 n)))
 (or (= ?x2457 ?x4316) $x2942))))))
 ))
 (let (($x9161 (= ?x218 (bvadd (_ bv1 6) (sc_s 1)))))
 (let ((?x4706 (used_gas_s x_0 x_1 x_2 x_CALLDATASIZE 2)))
 (let (($x2924 (not (= ((_ extract 6 6) (bvadd (_ bv1 7) (concat (_ bv0 1) ?x72))) (_ bv0 1)))))
 (let (($x4224 (forall ((w (_ BitVec 256)) )(let ((?x9968 (storage_s x_0 x_1 x_2 x_CALLDATASIZE 0 w)))
 (let ((?x4313 (storage_s x_0 x_1 x_2 x_CALLDATASIZE 1 w)))
 (= ?x4313 ?x9968))))
 ))
 (let (($x4233 (forall ((n (_ BitVec 6)) )(let ((?x11205 (stack_s x_0 x_1 x_2 x_CALLDATASIZE 0 n)))
 (let ((?x4316 (stack_s x_0 x_1 x_2 x_CALLDATASIZE 1 n)))
 (or (= ?x4316 ?x11205) (bvsle (bvadd (_ bv61 6) (sc_s 0)) n)))))
 ))
 (let ((?x154 (sc_s 1)))
 (let (($x6201 (= ?x154 (bvadd (_ bv1 6) ?x72))))
 (let (($x8003 (= (stack_s x_0 x_1 x_2 x_CALLDATASIZE 1 (bvadd (_ bv63 6) ?x72)) (stack_s x_0 x_1 x_2 x_CALLDATASIZE 0 (bvadd (_ bv63 6) ?x72)))))
 (let (($x6650 (= (stack_s x_0 x_1 x_2 x_CALLDATASIZE 1 (bvadd (_ bv62 6) ?x72)) (stack_s x_0 x_1 x_2 x_CALLDATASIZE 0 (bvadd (_ bv62 6) ?x72)))))
 (let ((?x1034 (bvadd (_ bv61 6) ?x72)))
 (let ((?x2508 (stack_s x_0 x_1 x_2 x_CALLDATASIZE 0 ?x1034)))
 (let (($x4184 (forall ((w (_ BitVec 256)) )(let ((?x9968 (storage_s x_0 x_1 x_2 x_CALLDATASIZE 0 w)))
 (= ?x9968 (_ bv0 256))))
 ))
 (let (($x4195 (= ?x5253 0)))
 (let (($x3899 (not $x57)))
 (let (($x1162 (= (stack_s x_0 x_1 x_2 x_CALLDATASIZE 0 (_ bv2 6)) x_2)))
 (let (($x4202 (= (stack_s x_0 x_1 x_2 x_CALLDATASIZE 0 (_ bv1 6)) x_1)))
 (let (($x4208 (= (stack_s x_0 x_1 x_2 x_CALLDATASIZE 0 (_ bv0 6)) x_0)))
 (let (($x96 (= ?x72 (_ bv3 6))))
 (and $x96 $x4208 $x4202 $x1162 $x3899 $x4195 $x4184 (= (stack_s x_0 x_1 x_2 x_CALLDATASIZE 1 (bvadd (_ bv63 6) ?x154)) ?x2508) (= (stack_s x_0 x_1 x_2 x_CALLDATASIZE 1 ?x1034) ?x2508) $x6650 $x8003 (= (used_gas_s x_0 x_1 x_2 x_CALLDATASIZE 1) (+ 3 ?x5253)) $x6201 $x4233 $x4224 (= $x189 (or $x57 $x2924 (not (bvsle (_ bv0 6) ?x1034)))) (= (stack_s x_0 x_1 x_2 x_CALLDATASIZE 2 ?x154) x_CALLDATASIZE) (= ?x4706 (+ 2 (used_gas_s x_0 x_1 x_2 x_CALLDATASIZE 1))) $x9161 $x4251 $x4253 $x5493 $x4274 $x4263 $x4124 $x4319 $x4146 $x2570 $x1024 (= (stack_t x_0 x_1 x_2 x_CALLDATASIZE 1 ?x63) x_CALLDATASIZE) (= (used_gas_t x_0 x_1 x_2 x_CALLDATASIZE 1) (+ 2 ?x1979)) $x2532 $x3952 $x4057 $x2108 (= (stack_t x_0 x_1 x_2 x_CALLDATASIZE 2 (bvadd (_ bv63 6) ?x4056)) ?x9993) (= (stack_t x_0 x_1 x_2 x_CALLDATASIZE 2 ?x4787) ?x9993) $x7690 $x10012 $x4338 $x8881 $x6865 $x2864 $x9883 (= $x903 (or $x1920 $x7962 (not (bvsle (_ bv0 6) ?x4787)))) $x73 $x9714 $x58 $x9967 $x10760 (not (and $x316 $x1364 $x9807 $x6084)))))))))))))))))))))))))))))))))))))))))))))))))))))))))))))))))))))))
 )
(check-sat)
(get-proof)
